500 500
277 233 182 147 213 315 261 210 243 159 217 260 222 296 263 226 264 237 245 137 321 200 270 299 165 198 155 278 184 187 208 261 344 213 362 362 237 281 155 210 325 360 346 131 284 262 146 254 332 313
242 177 216 134 127 212 175 281 256 314 147 349 199 127 302 250 344 179 137 328 154 174 128 179 370 182 295 219 155 270 293 204 168 135 162 374 322 308 344 163 225 225 347 144 284 228 178 164 238 304
67034 41241 39312 19698 27051 66780 45675 59010 62208 49926 31899 90740 44178 37592 79426 56500 90816 42423 33565 44936 49434 34800 34560 53521 61050 36036 45725 60882 28520 50490 60944 53244 57792 28755 58644 135388 76314 86548 53320 34230 73125 81000 120062 18864 80656 59736 25988 41656 79016 95152